
===== New CPLEX run =====
Instance: /home/yorig/tuner/mpils-tests/instances/miplib/medium-2/supportcase40.mps
Config: /scratch/yorig/mpils-results-grid-seconds-10-no-mip-start/medium-2/2proc/seed-3/8_supportcase40_seed-3_20260503_050730/expansion/config_param_CPXPARAM_MIP_Strategy_SubAlgorithm_2_iter_3.prm
========================

Selected objective sense:  MINIMIZE
Selected objective  name:  obj
Selected RHS        name:  rhs
Selected bound      name:  bnd
Version identifier: 22.1.2.0 | 2024-11-26 | 0edbb82fd
CPXPARAM_Threads                                 8
CPXPARAM_Parallel                                1
CPXPARAM_MIP_Cuts_Covers                         3
CPXPARAM_MIP_Strategy_SubAlgorithm               2
CPXPARAM_MIP_Cuts_FlowCovers                     2
CPXPARAM_MIP_Cuts_Gomory                         1
CPXPARAM_MIP_Cuts_MIRCut                         1
CPXPARAM_MIP_Cuts_Disjunctive                    -1
CPXPARAM_Emphasis_MIP                            2
CPXPARAM_MIP_Strategy_BBInterval                 2
CPXPARAM_TimeLimit                               10
Tried aggregator 2 times.
MIP Presolve eliminated 29622 rows and 11272 columns.
MIP Presolve modified 700 coefficients.
Aggregator did 100 substitutions.
Reduced MIP has 8469 rows, 5068 columns, and 24192 nonzeros.
Reduced MIP has 300 binaries, 0 generals, 0 SOSs, and 0 indicators.
Presolve time = 0.01 sec. (31.66 ticks)
Found incumbent of value 213568.377872 after 0.03 sec. (64.35 ticks)
Probing time = 0.00 sec. (1.10 ticks)
Tried aggregator 1 time.
Detecting symmetries...
Reduced MIP has 8469 rows, 5068 columns, and 24192 nonzeros.
Reduced MIP has 300 binaries, 0 generals, 0 SOSs, and 0 indicators.
Presolve time = 0.01 sec. (12.02 ticks)
Probing time = 0.15 sec. (0.85 ticks)
Clique table members: 100.
MIP emphasis: optimality.
MIP search method: dynamic search.
Parallel mode: deterministic, using up to 8 threads.
Root relaxation solution time = 0.17 sec. (175.06 ticks)

        Nodes                                         Cuts/
   Node  Left     Objective  IInf  Best Integer    Best Bound    ItCnt     Gap

*     0+    0                       213568.3779     3301.6156            98.45%
*     0+    0                        36874.2135     3301.6156            91.05%
      0     0    22536.4834    38    36874.2135    22536.4834     4631   38.88%
      0     0    22643.5396    38    36874.2135      Cuts: 34     4896   38.59%
*     0+    0                        31791.2147    22643.5396            28.77%
      0     0    22702.3791    38    31791.2147      Cuts: 30     5064   28.59%
      0     0    22702.3791    38    31791.2147    MIRcuts: 1     5065   28.59%
*     0+    0                        27717.5510    22702.3791            18.09%
*     0+    0                        27482.8847    22702.3791            17.39%
*     0+    0                        25065.7489    22702.3791             9.43%
Detecting symmetries...
      0     2    22702.3791    38    25065.7489    22702.3791     5065    9.43%
Elapsed time = 1.68 sec. (1367.70 ticks, tree = 0.02 MB, solutions = 6)
     51    29    24998.9723    18    25065.7489    22761.6935     9136    9.19%
*    52+   44                        24902.4309    22761.6935             8.60%
*    61    50      integral     0    24888.6756    22761.6935    12304    8.55%
    110    76    23912.7409    25    24888.6756    22761.6935    22727    8.55%
    166   104    24148.8367    32    24888.6756    22761.6935    28927    8.55%
    232   139    24101.2758    24    24888.6756    22761.6935    38482    8.55%
    278   164    24458.9552    12    24888.6756    22761.6935    47235    8.55%
    363   192        cutoff          24888.6756    22761.6935    53767    8.55%
*   429+  219                        24680.3632    22872.9852             7.32%
    447   216    24654.7189     2    24680.3632    22872.9852    65323    7.32%
*   494   215      integral     0    24662.9877    22892.9850    65526    7.18%
    579   244        cutoff          24662.9877    22892.9850    76706    7.18%
    755   274    24654.8723     2    24662.9877    22892.9850    82184    7.18%
*   769   273      integral     0    24662.2210    22892.9850    82205    7.17%
*   775+  275                        24589.7061    22892.9850             6.90%
*   782   280      integral     0    24355.4613    22892.9850    87661    6.00%
*   818   274      integral     0    24341.7252    22892.9850    88681    5.95%
*   830   277      integral     0    24341.5920    22892.9850    90029    5.95%
   1132   389    23480.9210    35    24341.5920    23025.8342   118882    5.41%
Elapsed time = 6.74 sec. (4490.66 ticks, tree = 13.21 MB, solutions = 15)
   1364   576    23478.6479    35    24341.5920    23271.1932   159607    4.40%
   1601   802    23500.0155    34    24341.5920    23422.8724   206491    3.77%

Cover cuts applied:  0
Flow cuts applied:  1
Mixed integer rounding cuts applied:  3
Gomory fractional cuts applied:  56

Root node processing (before b&c):
  Real time             =    1.61 sec. (1363.97 ticks)
Parallel b&c, 8 threads:
  Real time             =    8.39 sec. (5356.33 ticks)
  Sync time (average)   =    2.65 sec.
  Wait time (average)   =    0.00 sec.
                          ------------
Total (root+branch&cut) =   10.00 sec. (6720.30 ticks)
Gap: 3.67%
Upper bound: 24341.6
Lower bound: 23447.1
End of CPLEX run. Time: 10.0055 seconds

===== New CPLEX run =====
Instance: /home/yorig/tuner/mpils-tests/instances/miplib/medium-2/supportcase40.mps
Config: /scratch/yorig/mpils-results-grid-seconds-10-no-mip-start/medium-2/2proc/seed-3/8_supportcase40_seed-3_20260503_050730/expansion/config_param_CPXPARAM_MIP_Strategy_SubAlgorithm_3_iter_3.prm
========================

Selected objective sense:  MINIMIZE
Selected objective  name:  obj
Selected RHS        name:  rhs
Selected bound      name:  bnd
Version identifier: 22.1.2.0 | 2024-11-26 | 0edbb82fd
CPXPARAM_Threads                                 8
CPXPARAM_Parallel                                1
CPXPARAM_MIP_Cuts_Covers                         3
CPXPARAM_MIP_Strategy_SubAlgorithm               3
CPXPARAM_MIP_Cuts_FlowCovers                     2
CPXPARAM_MIP_Cuts_Gomory                         1
CPXPARAM_MIP_Cuts_MIRCut                         1
CPXPARAM_MIP_Cuts_Disjunctive                    -1
CPXPARAM_Emphasis_MIP                            2
CPXPARAM_MIP_Strategy_BBInterval                 2
CPXPARAM_TimeLimit                               10
Tried aggregator 2 times.
MIP Presolve eliminated 29622 rows and 11272 columns.
MIP Presolve modified 700 coefficients.
Aggregator did 100 substitutions.
Reduced MIP has 8469 rows, 5068 columns, and 24192 nonzeros.
Reduced MIP has 300 binaries, 0 generals, 0 SOSs, and 0 indicators.
Presolve time = 0.01 sec. (31.66 ticks)
Found incumbent of value 213415.247388 after 0.04 sec. (79.38 ticks)
Probing time = 0.00 sec. (1.10 ticks)
Tried aggregator 1 time.
Detecting symmetries...
Reduced MIP has 8469 rows, 5068 columns, and 24192 nonzeros.
Reduced MIP has 300 binaries, 0 generals, 0 SOSs, and 0 indicators.
Presolve time = 0.01 sec. (12.02 ticks)
Probing time = 0.17 sec. (0.85 ticks)
Clique table members: 100.
MIP emphasis: optimality.
MIP search method: dynamic search.
Parallel mode: deterministic, using up to 8 threads.
Root relaxation solution time = 0.13 sec. (175.25 ticks)

        Nodes                                         Cuts/
   Node  Left     Objective  IInf  Best Integer    Best Bound    ItCnt     Gap

*     0+    0                       213415.2474     3301.6156            98.45%
*     0+    0                        36874.2135     3301.6156            91.05%
      0     0    22536.4834    38    36874.2135    22536.4834     4631   38.88%
      0     0    22646.8363    40    36874.2135      Cuts: 35     9301   38.58%
*     0+    0                        36106.8474    22646.8363            37.28%
      0     0    22705.2653    39    36106.8474      Cuts: 34    14067   37.12%
*     0+    0                        33744.8045    22705.2653            32.71%
*     0+    0                        25227.5079    22705.2653            10.00%
      0     0    22831.4001    47    25227.5079      Cuts: 27    19266    9.50%
      0     0    22838.8033    38    25227.5079      Cuts: 17    24491    9.47%
      0     0    22840.8256    44    25227.5079       Cuts: 7    29358    9.46%
Detecting symmetries...
      0     0    22856.5906    42    25227.5079    MIRcuts: 8    34380    9.40%
      0     0    22862.5303    44    25227.5079    MIRcuts: 4    39319    9.37%
      0     0    22862.5303    44    25227.5079    MIRcuts: 2    44490    9.37%
      0     0    22862.5303    44    25227.5079    MIRcuts: 3    49389    9.37%
*     0+    0                        24982.2142    22862.5303             8.48%
Detecting symmetries...

Cover cuts applied:  0
Flow cuts applied:  0
Mixed integer rounding cuts applied:  11
Gomory fractional cuts applied:  65

Root node processing (before b&c):
  Real time             =    9.83 sec. (10514.05 ticks)
Parallel b&c, 8 threads:
  Real time             =    0.17 sec. (86.74 ticks)
  Sync time (average)   =    0.04 sec.
  Wait time (average)   =    0.00 sec.
                          ------------
Total (root+branch&cut) =   10.00 sec. (10600.79 ticks)
Gap: 8.48%
Upper bound: 24982.2
Lower bound: 22862.5
End of CPLEX run. Time: 10.0068 seconds

===== New CPLEX run =====
Instance: /home/yorig/tuner/mpils-tests/instances/miplib/medium-2/supportcase40.mps
Config: /scratch/yorig/mpils-results-grid-seconds-10-no-mip-start/medium-2/2proc/seed-3/8_supportcase40_seed-3_20260503_050730/expansion/config_param_CPXPARAM_MIP_Strategy_SubAlgorithm_4_iter_3.prm
========================

Selected objective sense:  MINIMIZE
Selected objective  name:  obj
Selected RHS        name:  rhs
Selected bound      name:  bnd
Version identifier: 22.1.2.0 | 2024-11-26 | 0edbb82fd
CPXPARAM_Threads                                 8
CPXPARAM_Parallel                                1
CPXPARAM_MIP_Cuts_Covers                         3
CPXPARAM_MIP_Strategy_SubAlgorithm               4
CPXPARAM_MIP_Cuts_FlowCovers                     2
CPXPARAM_MIP_Cuts_Gomory                         1
CPXPARAM_MIP_Cuts_MIRCut                         1
CPXPARAM_MIP_Cuts_Disjunctive                    -1
CPXPARAM_Emphasis_MIP                            2
CPXPARAM_MIP_Strategy_BBInterval                 2
CPXPARAM_TimeLimit                               10
Tried aggregator 2 times.
MIP Presolve eliminated 29622 rows and 11272 columns.
MIP Presolve modified 700 coefficients.
Aggregator did 100 substitutions.
Reduced MIP has 8469 rows, 5068 columns, and 24192 nonzeros.
Reduced MIP has 300 binaries, 0 generals, 0 SOSs, and 0 indicators.
Presolve time = 0.01 sec. (31.66 ticks)
Found incumbent of value 213568.377872 after 0.03 sec. (64.35 ticks)
Probing time = 0.00 sec. (1.10 ticks)
Tried aggregator 1 time.
Detecting symmetries...
Reduced MIP has 8469 rows, 5068 columns, and 24192 nonzeros.
Reduced MIP has 300 binaries, 0 generals, 0 SOSs, and 0 indicators.
Presolve time = 0.01 sec. (12.02 ticks)
Probing time = 0.07 sec. (0.85 ticks)
Clique table members: 100.
MIP emphasis: optimality.
MIP search method: dynamic search.
Parallel mode: deterministic, using up to 8 threads.
Root relaxation solution time = 0.17 sec. (175.25 ticks)

        Nodes                                         Cuts/
   Node  Left     Objective  IInf  Best Integer    Best Bound    ItCnt     Gap

*     0+    0                       213568.3779     3301.6156            98.45%
*     0+    0                        36874.2135     3301.6156            91.05%
      0     0    22536.4834    38    36874.2135    22536.4834     4631   38.88%
      0     0    22643.5396    38    36874.2135      Cuts: 34     4650   38.59%
*     0+    0                        35293.2812    22643.5396            35.84%
      0     0    22687.0432    38    35293.2812      Cuts: 25     4671   35.72%
*     0+    0                        27774.8443    22687.0432            18.32%
Detecting symmetries...
      0     2    22687.0432    38    27774.8443    22687.0432     4671   18.32%
Elapsed time = 7.41 sec. (4425.49 ticks, tree = 0.02 MB, solutions = 4)
      1     3    23214.1769    34    27774.8443    22688.7342     4692   18.31%
      2     4    23961.5096    27    27774.8443    22688.7342     4713   18.31%
      3     3    22703.4199    38    27774.8443    22688.7342     4691   18.31%
      5     6    23231.4233    34    27774.8443    22703.4199     4752   18.26%
      7     4    23234.3101    34    27774.8443    22703.4199     4713   18.26%
*     8+    3                        27164.0197    22703.4199            16.42%
     11     5    24765.4426    20    27164.0197    22703.4199     4732   16.42%
*    13+    5                        25336.4540    22703.4199            10.39%
     16    14    24790.9441    19    25336.4540    22710.2105     4915   10.37%
*    18+    7                        25316.4443    22710.2105            10.29%
     19    18    22748.6022    39    25316.4443    22710.2105     5004   10.29%
     24     8    23982.8051    26    25316.4443    22710.2105     4792   10.29%

Cover cuts applied:  0
Flow cuts applied:  1
Mixed integer rounding cuts applied:  1
Gomory fractional cuts applied:  53

Root node processing (before b&c):
  Real time             =    6.98 sec. (4421.02 ticks)
Parallel b&c, 8 threads:
  Real time             =    3.03 sec. (3245.06 ticks)
  Sync time (average)   =    1.22 sec.
  Wait time (average)   =    0.00 sec.
                          ------------
Total (root+branch&cut) =   10.00 sec. (7666.08 ticks)
Gap: 10.29%
Upper bound: 25316.4
Lower bound: 22710.2
End of CPLEX run. Time: 10.0065 seconds
